542 5
10 10 10 10 10 

0 0 0 0 0 0 4 2 54 66 118 
0 0 0 0 0 0 3 3 5 6 
4 4 3 3 3 4 4 12 8 7 4 
8 10 10 9 7 8 5 17 13 11 10 9 
8 5 10 10 10 10 2 10 7 
4 4 10 9 9 7 2 13 7 
2 3 4 6 9 10 4 17 16 11 9 
7 6 7 9 7 9 3 17 10 9 
10 6 5 5 10 10 3 19 18 15 
4 8 5 8 10 7 3 21 16 14 
4 8 7 10 8 9 2 19 14 
7 7 5 8 8 4 4 26 24 23 19 
4 6 10 5 7 7 3 21 20 18 
4 4 8 8 9 7 3 23 22 18 
9 10 10 7 9 8 3 23 21 20 
5 10 10 5 7 10 3 26 24 20 
6 9 10 10 8 9 2 22 18 
6 10 7 4 6 10 2 26 24 
9 10 9 9 5 5 1 20 
7 5 10 7 10 10 2 25 22 
10 7 8 3 8 6 2 29 24 
10 10 6 7 8 9 3 29 28 27 
1 5 5 8 4 6 3 29 28 27 
5 5 10 9 4 5 1 25 
10 5 10 6 7 5 2 28 27 
8 9 6 7 10 7 2 29 28 
1 4 10 7 8 6 4 35 33 31 30 
3 8 6 10 6 5 3 35 33 32 
4 4 8 7 9 8 3 35 33 30 
5 10 8 10 6 9 2 38 34 
4 7 9 4 10 10 2 38 34 
8 10 10 9 2 10 5 52 40 39 38 36 
9 6 4 10 6 8 1 34 
10 10 7 4 4 8 5 52 51 40 39 36 
7 9 6 3 6 3 4 52 51 39 36 
4 8 6 6 10 7 3 46 41 37 
9 10 5 7 8 4 7 50 49 48 45 44 43 42 
3 8 9 10 7 3 7 51 50 46 45 44 43 42 
3 8 10 10 10 7 4 49 47 45 44 
5 9 9 7 10 10 3 48 46 43 
6 8 5 9 6 7 2 47 42 
9 7 6 4 10 6 1 53 
9 6 7 6 10 10 1 53 
9 9 7 9 6 4 1 53 
7 10 5 6 8 7 1 53 
6 9 7 10 8 10 1 53 
2 9 4 9 9 9 1 53 
8 10 10 10 10 10 1 53 
3 10 9 10 4 6 1 53 
6 3 10 7 3 7 1 53 
2 10 7 10 7 9 1 53 
9 7 6 9 9 10 1 53 
0 0 0 0 0 0 1 542 
0 0 0 0 0 0 7 55 56 57 59 62 63 64 
6 0 2 0 0 0 2 61 58 
6 0 5 0 0 0 1 58 
4 0 10 0 0 0 1 58 
9 0 8 0 0 0 1 60 
10 0 8 0 0 0 1 60 
3 0 9 0 0 0 1 65 
10 0 6 0 0 0 1 65 
8 0 9 0 0 0 1 65 
8 0 9 0 0 0 1 65 
9 0 9 0 0 0 1 65 
0 0 0 0 0 0 4 170 182 224 266 
0 0 0 0 0 0 5 67 68 69 71 80 
2 5 3 3 3 4 2 79 70 
1 10 10 8 5 9 3 81 74 72 
5 6 6 6 7 8 3 81 79 72 
6 10 8 10 9 9 4 81 75 74 73 
9 9 9 8 5 10 3 81 74 73 
7 6 6 6 6 8 4 77 76 75 73 
7 6 10 3 7 6 4 94 83 82 78 
10 8 8 4 9 8 3 85 77 76 
3 9 9 7 7 6 4 94 87 86 82 
9 6 8 10 10 9 4 94 89 87 83 
6 6 9 4 8 10 4 94 89 86 84 
8 8 8 9 10 5 3 87 85 84 
5 6 4 8 7 5 3 94 89 83 
6 7 10 10 8 9 2 94 82 
3 7 5 8 8 8 2 94 83 
7 9 9 7 6 9 2 89 84 
8 7 9 9 10 10 2 91 86 
10 7 10 5 9 10 3 92 91 88 
6 5 9 6 4 7 1 86 
10 6 4 4 8 3 2 92 88 
8 8 10 10 7 6 4 99 93 91 90 
1 6 10 10 10 7 3 99 93 90 
10 8 7 10 8 7 3 99 93 91 
9 5 5 5 6 4 3 98 97 95 
6 10 9 10 8 10 3 98 97 95 
1 6 10 8 10 9 3 102 99 95 
1 6 8 6 4 7 3 102 101 96 
7 9 4 7 7 6 3 102 101 96 
5 10 6 10 7 9 2 101 96 
8 10 8 10 7 3 5 116 115 104 103 100 
2 7 8 8 7 10 4 104 102 101 100 
4 6 6 6 7 5 4 116 103 101 100 
7 8 10 8 9 9 4 115 103 101 100 
5 5 7 7 7 10 8 113 112 111 109 108 107 106 105 
8 10 6 4 4 10 4 113 109 108 106 
5 9 10 7 4 10 4 115 112 107 106 
1 10 6 10 8 8 3 110 109 108 
3 6 9 5 10 10 3 111 107 106 
1 8 5 10 10 9 2 114 110 
5 9 8 10 10 10 1 117 
2 7 8 10 5 6 1 117 
8 8 9 7 6 6 1 117 
9 10 6 9 10 6 1 117 
4 8 6 8 10 3 1 117 
10 8 7 10 8 10 1 117 
6 10 7 4 10 8 1 117 
1 6 4 10 7 5 1 117 
2 3 8 9 7 2 1 117 
9 8 6 2 9 8 1 117 
8 8 8 10 7 9 1 117 
0 0 0 0 0 0 1 542 
0 0 0 0 0 0 5 119 120 121 124 131 
8 5 2 3 2 6 2 130 122 
9 4 6 8 9 6 2 126 123 
6 7 6 9 7 3 2 130 123 
5 6 5 8 8 8 4 133 127 126 125 
6 7 7 9 5 9 5 133 132 128 127 125 
9 10 5 2 7 5 3 133 126 125 
5 8 7 7 10 6 4 143 135 134 129 
1 4 7 8 5 8 3 136 132 128 
5 7 7 7 7 2 4 143 138 135 134 
7 6 10 10 10 10 4 143 140 138 135 
10 7 9 10 10 8 4 140 138 137 136 
6 10 6 6 3 10 4 143 140 137 135 
3 7 7 10 6 7 3 143 138 134 
1 5 10 6 5 6 4 143 140 139 137 
3 10 10 6 7 10 2 143 135 
2 6 8 4 9 9 2 140 137 
1 9 9 7 6 7 2 144 139 
8 10 9 6 10 10 2 144 139 
6 10 8 10 10 6 3 145 144 141 
5 6 10 6 9 8 3 145 144 142 
7 6 8 7 8 10 2 145 141 
1 5 8 8 10 7 3 147 146 144 
8 8 6 10 8 10 2 147 142 
3 10 8 10 6 8 4 151 150 148 146 
7 4 7 8 8 7 4 151 150 148 147 
5 7 5 7 9 7 3 151 150 148 
10 8 7 7 6 5 3 150 148 147 
5 9 10 10 9 10 2 155 149 
3 4 7 8 10 8 6 168 156 155 154 153 152 
9 7 4 10 6 5 1 149 
9 10 9 10 8 10 6 168 167 156 154 153 152 
2 10 7 9 5 10 5 168 167 154 153 152 
3 5 8 5 10 5 4 156 155 153 152 
7 10 10 7 7 4 8 165 163 162 161 160 159 158 157 
9 7 3 8 10 10 5 163 162 161 160 158 
9 10 10 8 6 8 4 164 163 162 161 
9 10 7 8 7 9 4 167 165 159 158 
1 7 7 5 10 10 3 160 159 158 
6 6 6 4 7 7 2 166 164 
3 7 7 4 6 7 1 169 
8 10 5 10 7 9 1 169 
1 9 9 10 6 8 1 169 
9 10 10 6 4 7 1 169 
2 9 10 7 8 6 1 169 
9 10 10 10 6 5 1 169 
8 5 8 7 9 10 1 169 
5 10 8 10 10 5 1 169 
6 7 6 5 9 4 1 169 
3 5 10 9 8 10 1 169 
7 6 7 6 7 10 1 169 
0 0 0 0 0 0 1 542 
0 0 0 0 0 0 4 171 172 173 175 
7 0 0 0 8 0 4 178 177 176 174 
2 0 0 0 3 0 4 178 177 176 174 
6 0 0 0 7 0 3 177 176 174 
4 0 0 0 10 0 2 180 179 
8 0 0 0 7 0 1 176 
5 0 0 0 9 0 1 180 
10 0 0 0 10 0 1 179 
4 0 0 0 7 0 1 179 
5 0 0 0 7 0 1 181 
8 0 0 0 7 0 1 181 
0 0 0 0 0 0 4 308 320 352 384 
0 0 0 0 0 0 5 183 186 188 189 192 
4 6 4 4 3 0 3 191 187 184 
5 5 8 10 9 0 2 193 185 
3 4 9 9 8 0 5 222 198 197 194 190 
2 10 10 10 10 0 4 222 198 193 190 
6 8 8 8 9 0 9 222 211 207 204 201 199 198 197 196 
2 4 10 10 5 0 9 222 211 204 202 201 199 198 195 194 
4 10 5 4 8 0 5 210 204 201 195 191 
9 4 8 7 7 0 8 211 210 205 204 202 201 200 195 
2 8 5 6 9 0 3 211 205 193 
8 10 5 8 9 0 6 210 207 205 204 202 197 
9 10 6 6 10 0 4 207 202 200 197 
4 6 9 9 6 0 4 210 209 205 203 
5 5 10 7 4 0 4 212 209 207 203 
2 5 8 6 3 0 3 210 205 202 
2 6 6 10 4 0 4 216 215 212 206 
1 10 4 7 5 0 2 209 203 
5 9 9 6 9 0 2 216 200 
8 10 10 7 10 0 3 221 215 206 
3 9 6 3 8 0 3 221 216 206 
10 9 9 5 10 0 3 221 215 208 
6 7 7 10 7 0 2 221 206 
5 8 9 10 9 0 2 215 206 
10 6 8 5 8 0 4 221 219 215 213 
4 10 8 5 10 0 1 208 
6 8 5 10 4 0 4 221 220 219 215 
5 6 9 4 6 0 3 219 214 213 
2 6 4 10 7 0 3 219 216 214 
10 9 9 4 10 0 2 220 212 
6 6 7 4 6 0 1 212 
2 9 7 10 9 0 4 221 219 218 217 
6 7 10 6 9 0 2 220 217 
6 5 3 7 5 0 2 218 217 
4 5 9 9 7 0 2 218 217 
1 7 10 8 10 0 1 220 
8 10 5 6 4 0 1 223 
3 10 8 10 9 0 1 223 
4 7 10 10 8 0 1 223 
8 9 7 10 7 0 1 223 
7 10 6 10 10 0 1 223 
4 7 10 10 9 0 1 223 
0 0 0 0 0 0 1 542 
0 0 0 0 0 0 6 225 229 230 232 237 243 
2 8 0 3 3 4 3 233 228 226 
7 8 0 9 7 6 4 247 240 234 227 
6 5 0 8 10 9 8 264 257 254 249 246 241 238 231 
7 6 0 10 10 6 9 264 254 251 249 248 241 239 238 235 
3 6 0 8 10 7 4 251 246 239 233 
6 10 0 10 8 3 7 257 254 250 249 242 238 236 
3 3 0 2 5 6 6 262 251 250 248 242 236 
6 3 0 7 7 9 6 257 254 253 246 240 239 
7 6 0 8 5 9 5 253 248 247 240 238 
6 5 0 6 10 5 5 262 257 256 250 239 
7 8 0 8 8 8 3 263 262 240 
5 8 0 10 10 7 2 256 239 
6 10 0 7 10 8 2 249 244 
10 9 0 5 4 7 3 263 262 245 
6 5 0 8 7 7 2 263 244 
4 10 0 10 10 9 2 256 244 
1 7 0 6 8 10 2 262 244 
7 5 0 6 4 10 2 263 245 
6 9 0 8 7 6 3 258 257 250 
1 6 0 10 10 7 1 245 
2 10 0 9 8 9 3 260 255 252 
3 6 0 4 6 10 4 261 260 259 255 
2 9 0 8 7 6 2 259 249 
6 6 0 10 10 10 3 263 260 256 
3 10 0 6 9 4 2 261 256 
4 6 0 10 5 5 1 253 
2 5 0 7 10 8 1 253 
3 9 0 6 10 9 2 261 259 
2 7 0 6 8 10 2 263 260 
5 8 0 8 4 10 2 262 259 
10 9 0 10 7 10 1 258 
1 10 0 9 7 9 1 258 
10 8 0 10 10 3 1 259 
10 10 0 8 4 6 1 265 
7 9 0 4 7 10 1 265 
3 3 0 8 10 7 1 265 
9 10 0 7 3 9 1 265 
9 10 0 3 8 9 1 265 
10 8 0 9 5 6 1 265 
8 10 0 9 9 7 1 265 
0 0 0 0 0 0 1 542 
0 0 0 0 0 0 5 267 271 272 274 277 
5 6 2 4 6 0 4 280 275 270 268 
8 3 8 3 4 0 2 285 269 
4 7 6 6 10 0 8 306 292 287 284 282 281 276 273 
1 8 7 8 8 0 10 306 295 292 291 290 286 283 282 281 279 
5 10 4 6 8 0 6 295 291 287 286 278 275 
6 10 5 7 7 0 5 294 292 284 282 273 
1 7 10 6 6 0 6 295 293 291 290 286 278 
6 6 6 10 9 0 6 294 293 291 287 283 279 
8 5 10 3 5 0 4 290 285 284 282 
6 5 10 5 10 0 5 299 294 293 291 283 
9 4 5 10 5 0 4 305 304 292 288 
8 3 3 10 5 0 3 305 299 283 
9 8 4 9 8 0 3 305 304 284 
4 9 10 9 6 0 3 299 294 291 
7 5 10 8 8 0 2 293 288 
4 7 6 6 5 0 3 305 304 289 
5 8 10 5 7 0 2 304 288 
10 7 10 3 10 0 2 299 288 
8 10 7 10 8 0 2 297 292 
8 10 10 5 9 0 2 304 289 
7 7 10 9 7 0 2 299 289 
6 10 5 10 5 0 1 289 
1 8 10 9 10 0 3 302 298 296 
5 9 10 6 10 0 4 304 302 301 299 
5 9 10 7 10 0 3 301 300 297 
10 8 5 8 9 0 2 299 296 
8 10 7 6 7 0 4 305 303 301 300 
1 4 9 4 10 0 1 296 
1 8 5 8 10 0 1 297 
3 8 10 9 6 0 2 303 301 
4 10 10 10 5 0 2 304 302 
10 8 9 10 6 0 1 300 
9 9 6 10 7 0 1 300 
1 8 9 7 6 0 1 307 
7 3 6 9 8 0 1 307 
8 10 10 10 5 0 1 307 
5 9 7 10 10 0 1 307 
7 4 4 8 9 0 1 307 
7 10 10 10 10 0 1 307 
2 10 5 7 6 0 1 307 
0 0 0 0 0 0 1 542 
0 0 0 0 0 0 4 309 311 312 318 
6 0 0 0 6 0 4 317 316 313 310 
10 0 0 0 5 0 1 314 
5 0 0 0 5 0 1 315 
7 0 0 0 10 0 1 313 
3 0 0 0 4 0 1 319 
3 0 0 0 10 0 1 319 
9 0 0 0 10 0 1 319 
5 0 0 0 10 0 1 319 
9 0 0 0 5 0 1 319 
2 0 0 0 10 0 1 319 
0 0 0 0 0 0 4 416 438 450 472 
0 0 0 0 0 0 6 321 322 323 324 325 326 
9 0 8 5 2 0 3 329 328 327 
9 0 5 8 4 0 3 336 329 327 
9 0 9 10 9 0 3 336 329 327 
6 0 5 10 7 0 4 334 333 332 328 
9 0 6 5 10 0 3 334 328 327 
6 0 5 6 10 0 3 333 332 328 
8 0 8 10 4 0 5 337 335 332 331 330 
4 0 10 4 5 0 5 337 336 335 331 330 
5 0 8 9 7 0 3 334 333 330 
9 0 5 5 7 0 3 340 339 338 
7 0 10 9 8 0 3 340 339 338 
5 0 7 8 8 0 3 340 339 338 
9 0 9 3 8 0 3 340 339 338 
2 0 9 6 8 0 3 340 339 338 
6 0 2 6 9 0 2 339 338 
8 0 8 7 9 0 3 342 341 340 
9 0 7 10 10 0 1 338 
5 0 10 9 8 0 3 346 342 341 
4 0 4 4 10 0 4 350 346 344 341 
2 0 7 7 8 0 4 350 346 344 343 
5 0 9 10 9 0 2 345 343 
6 0 9 8 5 0 2 350 344 
9 0 10 7 5 0 2 349 347 
8 0 6 7 10 0 1 345 
6 0 7 8 9 0 2 349 348 
5 0 10 8 10 0 2 349 348 
10 0 4 10 5 0 1 348 
1 0 8 7 10 0 1 351 
4 0 10 9 4 0 1 351 
8 0 10 10 7 0 1 351 
0 0 0 0 0 0 1 542 
0 0 0 0 0 0 6 353 354 355 356 358 382 
6 5 2 3 0 0 4 366 360 359 357 
6 9 8 10 0 0 5 381 372 364 361 360 
10 6 10 10 0 0 6 377 373 372 371 364 361 
10 5 10 6 0 0 5 372 371 366 364 361 
3 10 10 6 0 0 4 377 372 371 361 
10 9 3 7 0 0 5 380 376 367 366 363 
9 9 9 8 0 0 3 376 363 362 
4 5 10 6 0 0 5 377 376 371 370 367 
10 10 4 9 0 0 2 376 362 
9 8 10 5 0 0 3 379 370 367 
7 10 9 8 0 0 3 377 370 368 
5 10 8 6 0 0 2 378 365 
2 4 9 7 0 0 1 367 
3 4 8 8 0 0 2 377 369 
3 7 2 6 0 0 1 368 
3 8 7 6 0 0 1 369 
7 9 9 10 0 0 1 374 
4 4 10 10 0 0 1 375 
3 7 8 10 0 0 1 378 
5 7 9 8 0 0 1 378 
8 6 10 6 0 0 1 376 
4 6 8 7 0 0 1 383 
5 10 4 8 0 0 1 383 
1 10 8 5 0 0 1 383 
10 8 5 8 0 0 1 383 
4 8 5 7 0 0 1 383 
10 6 9 9 0 0 1 383 
4 9 8 9 0 0 1 383 
8 9 5 10 0 0 1 383 
7 7 8 7 0 0 1 383 
0 0 0 0 0 0 1 542 
0 0 0 0 0 0 7 385 386 387 389 394 413 414 
8 5 2 0 0 6 4 409 392 390 388 
8 7 4 0 0 5 6 410 409 408 407 406 391 
9 7 6 0 0 8 4 411 410 397 391 
5 7 5 0 0 4 3 407 401 391 
5 7 10 0 0 5 5 412 410 403 401 392 
3 5 6 0 0 10 3 404 395 393 
3 8 9 0 0 10 2 404 393 
10 8 9 0 0 8 4 407 406 404 396 
4 7 9 0 0 3 3 405 400 396 
7 10 7 0 0 5 3 409 402 395 
9 7 6 0 0 7 2 408 400 
8 6 7 0 0 10 1 398 
8 7 7 0 0 5 1 398 
2 7 10 0 0 4 1 399 
7 8 10 0 0 9 1 402 
10 5 5 0 0 7 1 403 
4 7 6 0 0 10 1 406 
4 9 10 0 0 6 1 415 
2 10 10 0 0 10 1 415 
1 7 5 0 0 10 1 415 
6 9 8 0 0 10 1 415 
4 9 9 0 0 10 1 415 
5 8 10 0 0 10 1 415 
3 10 8 0 0 4 1 415 
5 10 7 0 0 8 1 415 
2 6 8 0 0 10 1 415 
6 6 8 0 0 7 1 415 
4 8 5 0 0 10 1 415 
8 5 9 0 0 5 1 415 
2 10 10 0 0 9 1 415 
0 0 0 0 0 0 1 542 
0 0 0 0 0 0 6 417 418 419 421 423 424 
3 0 0 4 0 10 3 436 428 420 
7 0 0 10 0 5 3 436 426 422 
2 0 0 7 0 2 4 436 429 428 425 
6 0 0 10 0 8 4 435 431 426 425 
10 0 0 10 0 10 4 435 431 427 426 
6 0 0 9 0 7 5 435 434 433 431 428 
2 0 0 3 0 8 5 435 434 433 431 428 
8 0 0 10 0 7 3 436 428 425 
4 0 0 4 0 8 3 434 433 432 
8 0 0 7 0 4 2 434 430 
5 0 0 10 0 8 2 433 432 
4 0 0 10 0 9 1 430 
4 0 0 8 0 8 1 431 
8 0 0 7 0 10 1 432 
6 0 0 7 0 4 1 432 
7 0 0 10 0 9 1 437 
8 0 0 10 0 8 1 437 
8 0 0 3 0 5 1 437 
7 0 0 5 0 10 1 437 
6 0 0 6 0 10 1 437 
0 0 0 0 0 0 1 542 
0 0 0 0 0 0 3 439 440 441 
1 7 0 0 0 0 4 448 444 443 442 
7 7 0 0 0 0 3 447 445 443 
3 5 0 0 0 0 2 445 443 
4 9 0 0 0 0 2 446 445 
7 10 0 0 0 0 1 446 
6 10 0 0 0 0 1 445 
9 5 0 0 0 0 1 449 
9 7 0 0 0 0 1 449 
4 10 0 0 0 0 1 449 
3 5 0 0 0 0 1 449 
0 0 0 0 0 0 4 494 506 518 530 
0 0 0 0 0 0 6 451 452 453 454 455 456 
4 0 0 0 3 4 4 464 459 458 457 
4 0 0 0 7 6 4 470 469 458 457 
1 0 0 0 9 9 6 470 468 467 462 461 459 
7 0 0 0 2 9 4 470 469 461 457 
4 0 0 0 5 10 3 470 469 457 
3 0 0 0 7 8 4 469 468 467 460 
7 0 0 0 9 7 4 468 467 463 462 
5 0 0 0 10 7 3 468 467 461 
5 0 0 0 5 5 3 469 466 463 
6 0 0 0 8 5 2 463 462 
10 0 0 0 8 5 2 466 463 
4 0 0 0 10 9 2 466 465 
3 0 0 0 10 10 1 465 
9 0 0 0 6 10 1 465 
8 0 0 0 6 6 1 471 
8 0 0 0 8 7 1 471 
2 0 0 0 7 10 1 471 
1 0 0 0 10 7 1 471 
8 0 0 0 10 6 1 471 
6 0 0 0 10 10 1 471 
0 0 0 0 0 0 1 542 
0 0 0 0 0 0 6 473 475 476 477 480 481 
6 0 0 0 3 5 2 482 474 
2 0 0 0 10 9 4 492 485 483 478 
4 0 0 0 6 6 3 491 485 479 
1 0 0 0 7 4 3 484 483 482 
1 0 0 0 9 5 2 482 478 
9 0 0 0 8 10 4 490 489 487 484 
5 0 0 0 10 6 4 492 489 488 483 
7 0 0 0 9 8 4 489 488 485 483 
9 0 0 0 8 8 4 492 488 486 485 
8 0 0 0 8 10 3 489 486 485 
9 0 0 0 10 10 3 490 487 486 
4 0 0 0 4 6 3 491 488 486 
10 0 0 0 10 10 1 487 
6 0 0 0 7 8 1 493 
9 0 0 0 6 7 1 493 
6 0 0 0 10 10 1 493 
9 0 0 0 10 5 1 493 
2 0 0 0 4 7 1 493 
5 0 0 0 5 7 1 493 
7 0 0 0 6 9 1 493 
0 0 0 0 0 0 1 542 
0 0 0 0 0 0 4 495 497 498 504 
7 0 0 3 0 0 2 503 496 
5 0 0 8 0 0 3 502 500 499 
5 0 0 10 0 0 3 501 500 499 
1 0 0 9 0 0 3 501 500 499 
1 0 0 6 0 0 1 505 
4 0 0 6 0 0 1 505 
5 0 0 10 0 0 1 505 
7 0 0 9 0 0 1 505 
3 0 0 7 0 0 1 505 
9 0 0 7 0 0 1 505 
0 0 0 0 0 0 1 542 
0 0 0 0 0 0 5 507 508 510 511 512 
10 0 0 6 0 0 3 516 515 509 
10 0 0 7 0 0 2 516 513 
10 0 0 10 0 0 1 513 
8 0 0 7 0 0 1 515 
1 0 0 7 0 0 1 514 
6 0 0 7 0 0 1 514 
10 0 0 10 0 0 1 517 
1 0 0 4 0 0 1 517 
1 0 0 9 0 0 1 517 
4 0 0 8 0 0 1 517 
0 0 0 0 0 0 1 542 
0 0 0 0 0 0 4 519 520 527 528 
10 0 0 0 0 4 4 526 525 523 521 
7 0 0 0 0 8 3 524 523 522 
8 0 0 0 0 8 1 522 
7 0 0 0 0 6 1 529 
6 0 0 0 0 7 1 529 
10 0 0 0 0 8 1 529 
10 0 0 0 0 10 1 529 
10 0 0 0 0 10 1 529 
2 0 0 0 0 4 1 529 
2 0 0 0 0 10 1 529 
0 0 0 0 0 0 1 542 
0 0 0 0 0 0 4 531 533 536 540 
10 0 0 0 5 0 4 539 535 534 532 
10 0 0 0 6 0 2 538 537 
4 0 0 0 6 0 1 534 
1 0 0 0 7 0 1 537 
8 0 0 0 10 0 1 537 
1 0 0 0 10 0 1 537 
7 0 0 0 7 0 1 541 
1 0 0 0 4 0 1 541 
6 0 0 0 10 0 1 541 
3 0 0 0 10 0 1 541 
0 0 0 0 0 0 1 542 
0 0 0 0 0 0 0 
